
******************************************************************************
This program contains Ipopt, a library for large-scale nonlinear optimization.
 Ipopt is released as open source code under the Eclipse Public License (EPL).
         For more information visit http://projects.coin-or.org/Ipopt
******************************************************************************

This is Ipopt version 3.12.6, running with linear solver ma57.

Number of nonzeros in equality constraint Jacobian...:        0
Number of nonzeros in inequality constraint Jacobian.:        6
Number of nonzeros in Lagrangian Hessian.............:        0

Total number of variables............................:        2
                     variables with only lower bounds:        2
                variables with lower and upper bounds:        0
                     variables with only upper bounds:        0
Total number of equality constraints.................:        0
Total number of inequality constraints...............:        3
        inequality constraints with only lower bounds:        3
   inequality constraints with lower and upper bounds:        0
        inequality constraints with only upper bounds:        0

iter    objective    inf_pr   inf_du lg(mu)  ||d||  lg(rg) alpha_du alpha_pr  ls
   0  2.5000000e-01 9.00e-01 1.06e+00  -1.0 0.00e+00    -  0.00e+00 0.00e+00   0
   1  3.3721169e-01 7.95e-01 1.53e+00  -1.0 3.57e-01    -  1.49e-01 9.85e-02h  1
   2  1.2206929e+00 0.00e+00 8.98e+00  -1.0 5.03e-01    -  2.97e-01 1.00e+00f  1
   3  1.4479637e+00 0.00e+00 1.61e+00  -1.0 4.96e-01    -  5.28e-01 1.00e+00f  1
   4  1.3631389e+00 0.00e+00 1.00e-06  -1.0 1.67e-01    -  1.00e+00 1.00e+00f  1
   5  1.1243320e+00 0.00e+00 6.63e-02  -2.5 5.13e-01    -  1.00e+00 7.31e-01f  1
   6  1.1078137e+00 0.00e+00 2.57e-02  -2.5 1.22e-01    -  8.54e-01 1.00e+00f  1
   7  1.1005915e+00 0.00e+00 6.94e-03  -3.8 2.46e-02    -  1.00e+00 8.99e-01f  1
   8  1.1003025e+00 0.00e+00 1.50e-09  -3.8 1.78e-03    -  1.00e+00 1.00e+00f  1
   9  1.1000035e+00 0.00e+00 1.84e-11  -5.7 5.98e-04    -  1.00e+00 1.00e+00f  1
iter    objective    inf_pr   inf_du lg(mu)  ||d||  lg(rg) alpha_du alpha_pr  ls
  10  1.1000000e+00 0.00e+00 2.51e-14  -8.6 6.91e-06    -  1.00e+00 1.00e+00f  1

Number of Iterations....: 10

                                   (scaled)                 (unscaled)
Objective...............:   1.0999999949804837e+00    1.0999999949804837e+00
Dual infeasibility......:   2.5105295921030828e-14    2.5105295921030828e-14
Constraint violation....:   0.0000000000000000e+00    0.0000000000000000e+00
Complementarity.........:   2.5287939755763881e-09    2.5287939755763881e-09
Overall NLP error.......:   2.5287939755763881e-09    2.5287939755763881e-09


Number of objective function evaluations             = 11
Number of objective gradient evaluations             = 11
Number of equality constraint evaluations            = 0
Number of inequality constraint evaluations          = 11
Number of equality constraint Jacobian evaluations   = 0
Number of inequality constraint Jacobian evaluations = 11
Number of Lagrangian Hessian evaluations             = 10
Total CPU secs in IPOPT (w/o function evaluations)   =      0.007
Total CPU secs in NLP function evaluations           =      0.003

EXIT: Optimal Solution Found.

************************ CUTEst statistics ************************


 Package used            :  IPOPT
 Problem                 :  SIMPLLPB  
 # variables             =               2
 # constraints           =               3
 # objective functions   =        0.2300000E+02
 # objective gradients   =        0.1200000E+02
 # objective Hessians    =        0.1100000E+02
 # Hessian-vector prdct  =        0.0000000E+00
 # constraints functions =        0.2400000E+02
 # constraints gradients =        0.1300000E+02
 # constraints Hessians  =        0.1100000E+02
 Exit code               =               0
 Final f                 =   0.1100000E+01
 Set up time             =            0.00 seconds
 Solve time              =            0.02 seconds


******************************************************************

System Time =       0.0040000002 s.
